20190715 13 0 0 0
20170713 10 0 0 0
20160615 20 0 0 0
20150522 40 12000 0 0
20140704 50 0 0 0
20130530 40 0 0 0
20120524 70 0 0 0
20110413 50 5000 0 0
20100629 30 0 0 0
20090520 70 0 0 0
20080620 30 5000 0 0
20060608 100 5000 0 0
20051110 0 2300 0 0
20050524 50 0 0 0
20030806 50 0 0 0
